NAME : rbg021.tw.4536.tour
COMMENT : Length = 4536
COMMENT : Found by LKH [Keld Helsgaun] Thu Jan 16 16:40:34 2020
TYPE : TOUR
DIMENSION : 20
TOUR_SECTION
1
2
3
4
5
6
7
9
8
10
11
12
13
14
15
16
17
18
19
20
-1
EOF
